c CNF
c from Selman's wff generator
p cnf 10  45
8 3 4 0
-7 -4 10 0
-4 5 -6 0
-2 8 6 0
3 10 -5 0
9 8 -2 0
-8 -6 -4 0
10 4 -6 0
10 9 -4 0
4 -8 -9 0
2 7 8 0
-10 -2 9 0
-5 -4 -1 0
-6 -2 10 0
-6 5 -3 0
1 8 6 0
5 4 9 0
6 7 4 0
-8 -10 -3 0
1 4 -5 0
-2 -3 -4 0
-8 3 10 0
1 -8 10 0
-5 8 -3 0
7 -6 3 0
7 -10 8 0
6 -8 -5 0
-3 -8 -7 0
-1 -4 3 0
5 6 3 0
8 -3 -10 0
-10 -3 -8 0
-7 -6 -4 0
8 -4 -6 0
-6 -5 -3 0
-3 -10 5 0
5 -1 -8 0
10 6 -3 0
-10 3 -6 0
5 8 1 0
-2 8 -10 0
-6 10 3 0
-8 6 -4 0
-4 -5 7 0
-7 9 4 0
